Gurobi 9.1.2 (linux64) logging started Fri Mar  4 16:44:56 2022

Gurobi Optimizer version 9.1.2 build v9.1.2rc0 (linux64)
Thread count: 12 physical cores, 24 logical processors, using up to 1 threads
Optimize a model with 35880 rows, 35880 columns and 440595 nonzeros
Model fingerprint: 0xb1d056a9
Model has 369841 quadratic objective terms
Variable types: 35800 continuous, 80 integer (80 binary)
Coefficient statistics:
  Matrix range     [2e-04, 1e+00]
  Objective range  [5e-38, 1e-03]
  QObjective range [9e-07, 2e-05]
  Bounds range     [1e+00, 1e+00]
  RHS range        [2e+00, 2e+00]
Found heuristic solution: objective 24.0538888
Presolve removed 6841 rows and 6841 columns
Presolve time: 1.80s
Presolved: 29039 rows, 29039 columns, 406897 nonzeros
Presolved model has 297303 quadratic objective terms
Variable types: 28959 continuous, 80 integer (80 binary)
Warning: Markowitz tolerance tightened to 0.125

Root simplex log...

Iteration    Objective       Primal Inf.    Dual Inf.      Time
    4218    2.4053889e+01   0.000000e+00   5.154394e+04      6s
Warning: Markowitz tolerance tightened to 0.25
Warning: Markowitz tolerance tightened to 0.5
    6703    2.4053888e+01   0.000000e+00   3.037499e+05     11s
    9023    2.2427667e+01   0.000000e+00   1.281491e+05     19s
   10060    2.2427635e+01   0.000000e+00   4.936133e+05     22s
   11050    2.2427647e+01   0.000000e+00   1.347633e+06     26s
   11742    1.8647247e+01   0.000000e+00   4.979828e+02     31s
   13620    1.8647247e+01   0.000000e+00   6.365145e+02     36s
   14452    1.8647247e+01   0.000000e+00   7.055701e+02     40s
   16066    1.8647247e+01   0.000000e+00   7.441756e+02     45s
   17581    1.8647247e+01   0.000000e+00   8.153656e+02     54s
   18150    1.8647247e+01   0.000000e+00   4.185758e+03     59s
   18641    1.8647247e+01   0.000000e+00   5.029173e+03     65s
   19591    1.2384682e+01   0.000000e+00   5.266129e+02     71s
   20233    1.2384682e+01   0.000000e+00   1.036980e+03     76s
   20859    1.2384682e+01   0.000000e+00   8.991545e+02     81s
   21477    1.2384682e+01   0.000000e+00   1.466792e+03     86s
   22076    1.2384682e+01   0.000000e+00   6.232564e+02     91s
   22669    1.2384682e+01   0.000000e+00   1.482936e+03     96s
   23239    1.2384682e+01   0.000000e+00   1.062576e+03    100s
   24315    1.2384682e+01   0.000000e+00   1.253846e+03    110s
   24826    1.2384682e+01   0.000000e+00   7.624249e+02    115s
   25381    1.2384682e+01   0.000000e+00   1.641731e+03    121s
   25781    1.2384682e+01   0.000000e+00   2.135961e+03    128s
   26180    1.2384682e+01   0.000000e+00   7.865568e+02    135s
   26517    1.1084297e+01   0.000000e+00   2.829352e+02    144s
   26809    1.1084276e+01   0.000000e+00   3.133820e+02    155s
   27128    1.1084282e+01   0.000000e+00   5.984687e+02    163s
   27379    1.1084262e+01   0.000000e+00   3.445573e+02    171s
   27657    1.1084242e+01   0.000000e+00   3.934485e+02    179s
   27907    1.1084225e+01   0.000000e+00   5.116535e+02    188s
   28201    1.1084237e+01   0.000000e+00   8.237972e+02    196s
   28479    1.1084222e+01   0.000000e+00   4.884408e+02    204s
   28773    1.1084207e+01   0.000000e+00   5.841625e+02    213s
   29094    1.1084201e+01   0.000000e+00   1.555124e+03    221s
   29379    1.1084193e+01   0.000000e+00   5.913321e+02    229s
   29703    1.1084187e+01   0.000000e+00   1.533906e+03    237s
   30032    1.1084189e+01   0.000000e+00   1.910388e+03    246s
   30313    1.1084183e+01   0.000000e+00   5.516360e+02    255s
   30641    7.4513556e+00   0.000000e+00   2.772160e+01    264s
   30698    7.3596215e+00   0.000000e+00   0.000000e+00    276s

Root relaxation: objective 7.359621e+00, 30698 iterations, 272.71 seconds

    Nodes    |    Current Node    |     Objective Bounds      |     Work
 Expl Unexpl |  Obj  Depth IntInf | Incumbent    BestBd   Gap | It/Node Time

     0     0    7.35962    0   80   24.05389    7.35962  69.4%     -  275s
     0     0    7.38853    0   80   24.05389    7.38853  69.3%     -  310s
     0     0    7.41879    0   80   24.05389    7.41879  69.2%     -  332s
     0     0    7.45686    0   80   24.05389    7.45686  69.0%     -  351s
     0     0    7.51696    0   80   24.05389    7.51696  68.7%     -  374s
H    0     0                      12.4193779    7.51696  39.5%     -  410s
     0     0    7.55235    0   80   12.41938    7.55235  39.2%     -  428s
     0     0    7.57073    0   80   12.41938    7.57073  39.0%     -  450s
     0     0    7.59515    0   80   12.41938    7.59515  38.8%     -  475s
     0     0    7.60170    0   80   12.41938    7.60170  38.8%     -  510s
     0     0    7.60227    0   80   12.41938    7.60227  38.8%     -  557s
     0     0    7.61706    0   80   12.41938    7.61706  38.7%     -  580s
     0     0    7.62311    0   80   12.41938    7.62311  38.6%     -  612s
     0     0    7.65118    0   80   12.41938    7.65118  38.4%     -  635s
     0     0    7.66663    0   80   12.41938    7.66663  38.3%     -  704s
     0     0    7.66824    0   80   12.41938    7.66824  38.3%     -  745s
     0     0    7.69176    0   80   12.41938    7.69176  38.1%     -  782s
     0     0    7.71340    0   80   12.41938    7.71340  37.9%     -  809s
     0     0    7.72019    0   80   12.41938    7.72019  37.8%     -  857s
     0     0    7.73003    0   80   12.41938    7.73003  37.8%     -  902s
     0     0    7.75547    0   80   12.41938    7.75547  37.6%     -  931s
     0     0    7.80461    0   80   12.41938    7.80461  37.2%     -  979s
     0     0    7.83433    0   80   12.41938    7.83433  36.9%     - 1043s
     0     0    7.85739    0   80   12.41938    7.85739  36.7%     - 1109s
     0     0    7.88797    0   80   12.41938    7.88797  36.5%     - 1153s
     0     0    7.89821    0   80   12.41938    7.89821  36.4%     - 1187s
     0     0    7.92034    0   80   12.41938    7.92034  36.2%     - 1240s
     0     0    7.95341    0   80   12.41938    7.95341  36.0%     - 1288s
     0     0    7.95393    0   80   12.41938    7.95393  36.0%     - 1350s
     0     0    7.98207    0   80   12.41938    7.98207  35.7%     - 1374s
     0     0    7.98214    0   80   12.41938    7.98214  35.7%     - 1424s
     0     0    7.99727    0   80   12.41938    7.99727  35.6%     - 1456s
     0     0    8.00070    0   80   12.41938    8.00070  35.6%     - 1516s
     0     0    8.01466    0   80   12.41938    8.01466  35.5%     - 1548s
     0     0    8.03833    0   80   12.41938    8.03833  35.3%     - 1602s
     0     0    8.07802    0   80   12.41938    8.07802  35.0%     - 1656s
     0     0    8.09527    0   80   12.41938    8.09527  34.8%     - 1709s
     0     0    8.09533    0   80   12.41938    8.09533  34.8%     - 1769s
     0     0    8.11492    0   80   12.41938    8.11492  34.7%     - 1804s
     0     0    8.11679    0   80   12.41938    8.11679  34.6%     - 1861s
     0     0    8.14881    0   80   12.41938    8.14881  34.4%     - 1898s
     0     0    8.15872    0   80   12.41938    8.15872  34.3%     - 1956s
     0     0    8.17702    0   80   12.41938    8.17702  34.2%     - 2012s
     0     0    8.18693    0   80   12.41938    8.18693  34.1%     - 2046s
     0     0    8.20263    0   80   12.41938    8.20263  34.0%     - 2095s
     0     0    8.21491    0   80   12.41938    8.21491  33.9%     - 2130s
     0     0    8.21951    0   80   12.41938    8.21951  33.8%     - 2193s
     0     0    8.23856    0   80   12.41938    8.23856  33.7%     - 2227s
     0     0    8.23863    0   80   12.41938    8.23863  33.7%     - 2279s
     0     0    8.25812    0   80   12.41938    8.25812  33.5%     - 2338s
     0     0    8.25813    0   80   12.41938    8.25813  33.5%     - 2406s
     0     0    8.28810    0   80   12.41938    8.28810  33.3%     - 2442s
     0     0    8.29128    0   80   12.41938    8.29128  33.2%     - 2493s
     0     0    8.30100    0   80   12.41938    8.30100  33.2%     - 2548s
     0     0    8.30102    0   80   12.41938    8.30102  33.2%     - 2584s
     0     0    8.31432    0   80   12.41938    8.31432  33.1%     - 2617s
     0     0    8.33560    0   80   12.41938    8.33560  32.9%     - 2683s
     0     0    8.35716    0   80   12.41938    8.35716  32.7%     - 2743s
     0     0    8.38005    0   80   12.41938    8.38005  32.5%     - 2776s
     0     0    8.38052    0   80   12.41938    8.38052  32.5%     - 2835s
     0     0    8.38079    0   80   12.41938    8.38079  32.5%     - 2912s
     0     0    8.39808    0   80   12.41938    8.39808  32.4%     - 2982s
     0     0    8.40785    0   80   12.41938    8.40785  32.3%     - 3048s
     0     0    8.41123    0   80   12.41938    8.41123  32.3%     - 3117s
     0     0    8.42740    0   80   12.41938    8.42740  32.1%     - 3179s
     0     0    8.44068    0   80   12.41938    8.44068  32.0%     - 3216s
     0     0    8.44213    0   80   12.41938    8.44213  32.0%     - 3289s
     0     0    8.45397    0   80   12.41938    8.45397  31.9%     - 3325s
     0     0    8.47206    0   80   12.41938    8.47206  31.8%     - 3365s
     0     0    8.47872    0   80   12.41938    8.47872  31.7%     - 3430s
     0     0    8.47992    0   80   12.41938    8.47992  31.7%     - 3504s
     0     0    8.49709    0   80   12.41938    8.49709  31.6%     - 3583s
     0     0    8.49825    0   80   12.41938    8.49825  31.6%     - 3648s
     0     0    8.49828    0   80   12.41938    8.49828  31.6%     - 3704s
     0     0    8.51134    0   80   12.41938    8.51134  31.5%     - 3766s
     0     0    8.51189    0   80   12.41938    8.51189  31.5%     - 3835s
     0     0    8.51190    0   80   12.41938    8.51190  31.5%     - 3887s
     0     0    8.51827    0   80   12.41938    8.51827  31.4%     - 3934s
     0     0    8.53304    0   80   12.41938    8.53304  31.3%     - 4028s
     0     0    8.53409    0   80   12.41938    8.53409  31.3%     - 4130s
     0     0    8.53427    0   80   12.41938    8.53427  31.3%     - 4192s
     0     0    8.53428    0   80   12.41938    8.53428  31.3%     - 4233s
     0     0    8.53977    0   80   12.41938    8.53977  31.2%     - 4298s
     0     0    8.54429    0   80   12.41938    8.54429  31.2%     - 4375s
     0     0    8.54439    0   80   12.41938    8.54439  31.2%     - 4437s
     0     0    8.54877    0   80   12.41938    8.54877  31.2%     - 4473s
     0     0    8.55364    0   80   12.41938    8.55364  31.1%     - 4555s
     0     0    8.55364    0   80   12.41938    8.55364  31.1%     - 4642s
     0     0    8.55954    0   80   12.41938    8.55954  31.1%     - 4686s
     0     0    8.57041    0   80   12.41938    8.57041  31.0%     - 4793s
     0     0    8.57094    0   80   12.41938    8.57094  31.0%     - 4854s
     0     0    8.59465    0   80   12.41938    8.59465  30.8%     - 4929s
     0     0    8.60062    0   80   12.41938    8.60062  30.7%     - 4997s
     0     0    8.60320    0   80   12.41938    8.60320  30.7%     - 5078s
     0     0    8.60330    0   80   12.41938    8.60330  30.7%     - 5155s
     0     0    8.60933    0   80   12.41938    8.60933  30.7%     - 5202s
     0     0    8.61713    0   80   12.41938    8.61713  30.6%     - 5287s
     0     0    8.61734    0   80   12.41938    8.61734  30.6%     - 5369s
     0     0    8.61737    0   80   12.41938    8.61737  30.6%     - 5474s
     0     0    8.62454    0   80   12.41938    8.62454  30.6%     - 5564s
     0     0    8.63938    0   80   12.41938    8.63938  30.4%     - 5626s
     0     0    8.64007    0   80   12.41938    8.64007  30.4%     - 5695s
     0     0    8.64054    0   80   12.41938    8.64054  30.4%     - 5736s
     0     0    8.67038    0   80   12.41938    8.67038  30.2%     - 5790s
     0     0    8.67039    0   80   12.41938    8.67039  30.2%     - 5901s
     0     0    8.68191    0   80   12.41938    8.68191  30.1%     - 5948s
     0     0    8.68676    0   80   12.41938    8.68676  30.1%     - 6029s
     0     0    8.68720    0   80   12.41938    8.68720  30.1%     - 6114s
     0     0    8.70318    0   80   12.41938    8.70318  29.9%     - 6176s
     0     0    8.70457    0   80   12.41938    8.70457  29.9%     - 6262s
     0     0    8.70499    0   80   12.41938    8.70499  29.9%     - 6357s
     0     0    8.71156    0   80   12.41938    8.71156  29.9%     - 6433s
     0     0    8.72163    0   80   12.41938    8.72163  29.8%     - 6517s
     0     0    8.72438    0   80   12.41938    8.72438  29.8%     - 6620s
     0     0    8.72755    0   80   12.41938    8.72755  29.7%     - 6718s
     0     0    8.73473    0   80   12.41938    8.73473  29.7%     - 6776s
     0     0    8.73546    0   80   12.41938    8.73546  29.7%     - 6867s
     0     0    8.74429    0   80   12.41938    8.74429  29.6%     - 6918s
     0     0    8.75380    0   80   12.41938    8.75380  29.5%     - 7009s
     0     0    8.75422    0   80   12.41938    8.75422  29.5%     - 7091s
     0     0    8.75431    0   80   12.41938    8.75431  29.5%     - 7181s
     0     0    8.76266    0   80   12.41938    8.76266  29.4%     - 7232s
     0     0    8.77419    0   80   12.41938    8.77419  29.4%     - 7293s
     0     0    8.78180    0   80   12.41938    8.78180  29.3%     - 7395s
     0     0    8.78677    0   80   12.41938    8.78677  29.2%     - 7484s
     0     0    8.78763    0   80   12.41938    8.78763  29.2%     - 7573s
     0     0    8.78764    0   80   12.41938    8.78764  29.2%     - 7628s
     0     0    8.79678    0   80   12.41938    8.79678  29.2%     - 7682s
     0     0    8.80403    0   80   12.41938    8.80403  29.1%     - 7773s
     0     0    8.80613    0   80   12.41938    8.80613  29.1%     - 7866s
     0     0    8.80614    0   80   12.41938    8.80614  29.1%     - 7915s
     0     0    8.82173    0   80   12.41938    8.82173  29.0%     - 7996s
     0     0    8.82372    0   80   12.41938    8.82372  29.0%     - 8073s
     0     0    8.82373    0   80   12.41938    8.82373  29.0%     - 8138s
     0     0    8.84191    0   80   12.41938    8.84191  28.8%     - 8181s
     0     0    8.84195    0   80   12.41938    8.84195  28.8%     - 8268s
     0     0    8.85450    0   80   12.41938    8.85450  28.7%     - 8316s
     0     0    8.86690    0   80   12.41938    8.86690  28.6%     - 8410s
     0     0    8.86718    0   80   12.41938    8.86718  28.6%     - 8548s
     0     0    8.87797    0   80   12.41938    8.87797  28.5%     - 8685s
     0     0    8.88043    0   80   12.41938    8.88043  28.5%     - 8753s
     0     0    8.88048    0   80   12.41938    8.88048  28.5%     - 8827s
     0     0    8.88249    0   80   12.41938    8.88249  28.5%     - 8871s
     0     0    8.88831    0   80   12.41938    8.88831  28.4%     - 8967s
     0     0    8.88846    0   80   12.41938    8.88846  28.4%     - 9057s
     0     0    8.89562    0   80   12.41938    8.89562  28.4%     - 9164s
     0     0    8.89599    0   80   12.41938    8.89599  28.4%     - 9231s
     0     0    8.90087    0   80   12.41938    8.90087  28.3%     - 9279s
     0     0    8.90102    0   80   12.41938    8.90102  28.3%     - 9400s
     0     0    8.90628    0   80   12.41938    8.90628  28.3%     - 9473s
     0     0    8.90629    0   80   12.41938    8.90629  28.3%     - 9556s
     0     0    8.91004    0   80   12.41938    8.91004  28.3%     - 9632s
     0     0    8.91031    0   80   12.41938    8.91031  28.3%     - 9735s
     0     0    8.91292    0   80   12.41938    8.91292  28.2%     - 9795s
     0     0    8.91292    0   80   12.41938    8.91292  28.2%     - 9913s
     0     0    8.91612    0   80   12.41938    8.91612  28.2%     - 9962s
     0     0    8.91633    0   80   12.41938    8.91633  28.2%     - 10061s
     0     0    8.91878    0   80   12.41938    8.91878  28.2%     - 10133s
     0     0    8.91886    0   80   12.41938    8.91886  28.2%     - 10208s
     0     0    8.92362    0   80   12.41938    8.92362  28.1%     - 10311s
     0     0    8.92369    0   80   12.41938    8.92369  28.1%     - 10383s
     0     0    8.92912    0   80   12.41938    8.92912  28.1%     - 10475s
     0     0    8.92925    0   80   12.41938    8.92925  28.1%     - 10534s
     0     0    8.93660    0   80   12.41938    8.93660  28.0%     - 10606s
     0     0    8.93787    0   80   12.41938    8.93787  28.0%     - 10718s
     0     0    8.94325    0   80   12.41938    8.94325  28.0%     - 10821s
     0     0    8.94353    0   80   12.41938    8.94353  28.0%     - 10905s
     0     0    8.94390    0   80   12.41938    8.94390  28.0%     - 11009s
     0     0    8.94393    0   80   12.41938    8.94393  28.0%     - 11082s
     0     0    8.95044    0   80   12.41938    8.95044  27.9%     - 11138s
     0     0    8.95098    0   80   12.41938    8.95098  27.9%     - 11191s
     0     0    8.95604    0   80   12.41938    8.95604  27.9%     - 11263s
     0     0    8.95608    0   80   12.41938    8.95608  27.9%     - 11373s
     0     0    8.96121    0   80   12.41938    8.96121  27.8%     - 11417s
     0     0    8.96438    0   80   12.41938    8.96438  27.8%     - 11518s
     0     0    8.96453    0   80   12.41938    8.96453  27.8%     - 11655s
     0     0    8.96821    0   80   12.41938    8.96821  27.8%     - 11772s
     0     0    8.96824    0   80   12.41938    8.96824  27.8%     - 11892s
     0     0    8.97028    0   80   12.41938    8.97028  27.8%     - 11966s
     0     0    8.97124    0   80   12.41938    8.97124  27.8%     - 12134s
     0     0    8.97126    0   80   12.41938    8.97126  27.8%     - 12261s
     0     0    8.97344    0   80   12.41938    8.97344  27.7%     - 12373s
     0     0    8.97578    0   80   12.41938    8.97578  27.7%     - 12647s
     0     0    8.97586    0   80   12.41938    8.97586  27.7%     - 12728s
     0     0    8.97772    0   80   12.41938    8.97772  27.7%     - 12810s
     0     0    8.97804    0   80   12.41938    8.97804  27.7%     - 13012s
     0     0    8.97983    0   80   12.41938    8.97983  27.7%     - 13095s
     0     0    8.98236    0   80   12.41938    8.98236  27.7%     - 13290s
     0     0    8.98273    0   80   12.41938    8.98273  27.7%     - 13396s
     0     0    8.98438    0   80   12.41938    8.98438  27.7%     - 13534s
     0     0    8.98439    0   80   12.41938    8.98439  27.7%     - 13644s
     0     0    8.98665    0   80   12.41938    8.98665  27.6%     - 13751s
     0     0    8.98667    0   80   12.41938    8.98667  27.6%     - 13873s
     0     0    8.98842    0   80   12.41938    8.98842  27.6%     - 13949s
     0     0   10.13637    0   50   12.41938   10.13637  18.4%     - 14776s
     0     2   10.15152    0   50   12.41938   10.15152  18.3%     - 15073s
     1     3   12.33386    1   13   12.41938   11.62822  6.37%   137 15082s
     2     2     cutoff    2        12.41938   11.62822  6.37%  77.5 15092s
     3     3   12.35538    2   12   12.41938   11.62822  6.37%  54.0 15117s
H    4     2                      12.3811546   11.62822  6.08%  40.5 15143s
     5     4   12.38064    4    2   12.38115   11.62822  6.08%  39.0 15147s
     6     3   12.38089    5    1   12.38115   11.62822  6.08%  33.0 15166s
     7     2     cutoff    3        12.38115   11.62822  6.08%  28.7 15171s
     8     1     cutoff    4        12.38115   11.62822  6.08%  26.1 15175s
     9     0     cutoff    1        12.38115   12.38115  0.00%  29.7 15185s

Cutting planes:
  Network: 34

Explored 10 nodes (35400 simplex iterations) in 15185.22 seconds
Thread count was 1 (of 24 available processors)

Solution count 3: 12.3812 12.4194 24.0539 

Optimal solution found (tolerance 1.00e-04)
Best objective 1.238115462341e+01, best bound 1.238115462342e+01, gap 0.0000%
